100
32
25
25
24
29
29
31
15
14
5
31
16
24
1
24
8
14
2
16
7
27
9
17
28
21
2
24
10
10
32
1
29
29
27
23
2
32
30
7
16
31
1
12
29
1
13
5
26
8
22
7
15
3
31
27
4
15
16
29
1
1
22
16
20
6
28
25
8
27
9
8
3
27
30
16
13
11
11
10
12
8
13
27
11
27
1
16
22
19
19
24
13
16
29
2
18
4
19
20
19
11